
  12    4
  10   10   10   10

   0   0   0   0   0   2 2 5 
   3  10  10  10  10   1 3 
   3  10  10  10  10   2 6 4 
  10  10  10  10  10   3 11 8 7 
   9  10  10  10  10   3 11 10 8 
   3  10  10  10  10   2 8 7 
   5  10  10  10  10   2 10 9 
   4  10  10  10  10   1 9 
  10  10  10  10  10   1 12
   6  10  10  10  10   1 12
   9  10  10  10  10   1 12
   0   0   0   0   0   0 
